NAME: rand_0/map2_72
TYPE: TSP
COMMENT: autogenerated using a wonderful map creator
DIMENSION: 96
EDGE_WEIGHT_TYPE: EUC_2D
NODE_COORD_SECTION
1 81.0 5.0
2 3.0 9.0
3 80.0 7.0
4 82.0 2.0
5 78.0 9.0
6 4.0 7.0
7 1.0 7.0
8 5.0 3.0
9 5.0 5.0
10 79.0 3.0
11 80.0 1.0
12 80.0 6.0
13 82.0 7.0
14 3.0 3.0
15 5.0 7.0
16 81.0 1.0
17 2.0 7.0
18 2.0 5.0
19 3.0 8.0
20 1.0 4.0
21 79.0 5.0
22 2.0 2.0
23 81.0 9.0
24 4.0 9.0
25 3.0 7.0
26 78.0 6.0
27 5.0 4.0
28 82.0 6.0
29 78.0 3.0
30 80.0 9.0
31 2.0 9.0
32 78.0 8.0
33 3.0 5.0
34 81.0 8.0
35 5.0 8.0
36 5.0 2.0
37 82.0 4.0
38 1.0 6.0
39 1.0 3.0
40 80.0 5.0
41 82.0 8.0
42 78.0 7.0
43 80.0 3.0
44 1.0 5.0
45 4.0 1.0
46 5.0 1.0
47 3.0 6.0
48 3.0 2.0
49 36.0 7.0
50 11.0 5.0
51 46.0 2.0
52 26.0 5.0
53 59.0 2.0
54 74.0 2.0
55 76.0 8.0
56 49.0 2.0
57 38.0 2.0
58 16.0 8.0
59 73.0 5.0
60 62.0 5.0
61 7.0 5.0
62 64.0 2.0
63 20.0 8.0
64 22.0 5.0
65 11.0 2.0
66 75.0 5.0
67 68.0 8.0
68 44.0 8.0
69 72.0 8.0
70 47.0 6.0
71 36.0 6.0
72 14.0 3.0
73 69.0 3.0
74 58.0 3.0
75 74.0 8.0
76 41.0 5.0
77 56.0 2.0
78 34.0 2.0
79 45.0 2.0
80 14.0 5.0
81 58.0 5.0
82 51.0 8.0
83 18.0 2.0
84 29.0 8.0
85 20.0 5.0
86 58.0 7.0
87 75.0 2.0
88 57.0 8.0
89 48.0 5.0
90 37.0 2.0
91 70.0 8.0
92 8.0 8.0
93 21.0 8.0
94 12.0 5.0
95 14.0 2.0
96 60.0 8.0
97 27.0 5.0
98 16.0 2.0
99 73.0 8.0
100 40.0 5.0
101 31.0 2.0
102 58.0 4.0
103 69.0 4.0
104 33.0 2.0
105 46.0 5.0
106 25.0 7.0
107 26.0 8.0
108 70.0 5.0
109 17.0 8.0
110 8.0 5.0
111 28.0 8.0
112 65.0 2.0
113 67.0 2.0
114 58.0 8.0
115 47.0 5.0
116 36.0 5.0
117 34.0 8.0
118 38.0 5.0
119 40.0 2.0
120 18.0 8.0
START_DEPOT_SECTION
1
2
3
4
5
6
7
8
9
10
11
12
13
14
15
16
17
18
19
20
21
22
23
24
-1
END_DEPOT_SECTION
25
26
27
28
29
30
31
32
33
34
35
36
37
38
39
40
41
42
43
44
45
46
47
48
-1
EOF
